(set-info :smt-lib-version 2.6)
(set-logic QF_FP)
(set-info :source |Random FP created by PyMPF|)
(set-info :license |https://www.gnu.org/licenses/gpl-3.0.html|)
(set-info :category random)
(set-info :status unsat)
(declare-const x Float32)
(assert (= x ((_ to_fp 8 24) #x821AA85B)))
;; x should be Float32(0x821AA85B [Rational(-10135643, 89202980794122492566142873090593446023921664), -0.000000])

(declare-const y Float32)
(assert (= y (fp #b1 #b00000000 #b01100111110100011110001)))
;; y should be Float32(0x8033E8F1 [Rational(-3401969, 713623846352979940529142984724747568191373312), -0.000000])

(declare-const z Float32)
(assert (= z ((_ to_fp 8 24) #x00000001)))
;; z should be Float32(0x00000001 [Rational(1, 713623846352979940529142984724747568191373312), 0.000000])

(declare-const result Float32)
(assert (= result (fp.fma RTP x y z)))
(assert (not (= result (fp #b0 #b00000000 #b00000000000000000000010))))
(check-sat)
(exit)
